c ren 1 -> 1
c ren 2 -> 2
c ren 3 -> 3
c ren 4 -> 4
c ren 5 -> 5
c ren 6 -> 6
c ren 7 -> 7
c ren 8 -> 8
c ren 9 -> 9
c ren 10 -> 10
c ren 11 -> 11
c ren 12 -> 12
c ren 13 -> 13
c ren 14 -> 14
c ren 15 -> 15
c ren 16 -> 16
c ren 17 -> 17
c ren 18 -> 18
c ren 19 -> 19
c ren 20 -> 20
c ren 21 -> 21
c ren 22 -> 22
c ren 23 -> 23
c ren 24 -> 24
c ren 25 -> 25
c ren 26 -> 26
c ren 27 -> 27
c ren 28 -> 28
c ren 29 -> 29
c ren 30 -> 30
c ren 31 -> 31
c ren 32 -> 32
c ren 33 -> 33
c ren 34 -> 34
c ren 35 -> 35
c ren 36 -> 36
c ren 37 -> 37
c ren 38 -> 38
c ren 39 -> 39
c ren 40 -> 40
c ren 41 -> 41
c ren 42 -> 42
c ren 43 -> 43
c ren 44 -> 44
c ren 45 -> 45
c ren 46 -> 46
c ren 47 -> 47
c ren 48 -> 48
c ren 49 -> 49
c ren 50 -> 50
c ren 65 -> 51
c ren 66 -> 52
c ren 67 -> 53
c ren 69 -> 54
c ren 70 -> 55
c ren 73 -> 56
c ren 74 -> 57
c ren 76 -> 58
c ren 77 -> 59
c ren 82 -> 60
c ren 83 -> 61
c ren 85 -> 62
c ren 86 -> 63
c ren 112 -> 64
c ren 124 -> 65
c ren 137 -> 66
c ren 145 -> 67
c ren 146 -> 68
c ren 153 -> 69
c ren 154 -> 70
c ren 163 -> 71
c ren 164 -> 72
c ren 180 -> 73
c ren 186 -> 74
c ren 193 -> 75
c ren 194 -> 76
c ren 208 -> 77
c ren 209 -> 78
c ren 217 -> 79
c ren 224 -> 80
c ren 225 -> 81
c ren 239 -> 82
c ren 240 -> 83
c ren 249 -> 84
c ren 259 -> 85
c ren 269 -> 86
c ren 270 -> 87
c ren 279 -> 88
c ren 280 -> 89
c ren 289 -> 90
c ren 290 -> 91
c ren 300 -> 92
c ren 301 -> 93
p cnf 93 426
a 1 2 3 4 5 6 7 8 9 10 11 12 13 14 15 16 17 18 19 20 21 22 23 24 25 26 27 28 29 30 31 32 33 34 35 36 37 0
d 38 1 2 3 4 5 6 7 8 9 10 11 12 13 14 15 16 17 18 19 20 21 22 23 24 0
d 39 1 2 3 4 5 6 7 8 9 10 11 12 13 14 15 16 17 18 19 20 21 22 23 24 0
d 40 1 2 3 4 5 6 7 8 9 10 11 12 13 14 15 16 17 18 19 20 21 22 23 24 0
d 41 1 2 3 4 5 6 7 8 9 10 11 12 13 14 15 16 17 18 19 20 21 22 23 24 0
d 42 1 2 3 4 5 6 7 8 9 10 11 12 13 14 15 16 17 18 19 20 21 22 23 24 0
d 43 1 2 3 4 5 6 7 8 9 10 11 12 13 14 15 16 17 18 19 20 21 22 23 24 0
d 44 1 2 3 4 5 6 7 8 9 10 11 12 13 14 15 16 17 18 19 20 21 22 23 24 0
d 45 1 2 3 4 5 6 7 8 9 10 11 12 13 14 15 16 17 18 19 20 21 22 23 24 0
d 46 1 2 3 4 5 6 7 8 9 10 11 12 13 14 15 16 17 18 19 20 21 22 23 24 0
d 47 1 2 3 4 5 6 7 8 9 10 11 12 13 14 15 16 17 18 19 20 21 22 23 24 0
d 48 1 2 3 4 5 6 7 8 9 10 11 12 13 14 15 16 17 18 19 20 21 22 23 24 0
d 49 12 13 14 15 16 17 18 19 20 21 22 23 24 0
d 50 25 26 27 28 29 30 31 32 33 34 35 36 37 0
e 51 52 53 54 55 56 57 58 59 60 61 62 63 64 65 66 67 68 69 70 71 72 73 74 75 76 77 78 79 80 81 82 83 84 85 86 87 88 89 90 91 92 93 0
12 13 14 -15 25 26 27 -28 51 0
12 13 -14 -15 25 26 -27 -28 51 0
-12 -13 14 15 -25 -26 27 28 51 0
12 13 -14 15 25 26 -27 28 51 0
12 -13 14 15 25 -26 27 28 51 0
-12 -13 -14 15 -25 -26 -27 28 51 0
12 -13 -14 15 25 -26 -27 28 51 0
-12 13 14 15 -25 26 27 28 51 0
-12 -13 -14 -15 -25 -26 -27 -28 51 0
12 -13 -14 -15 25 -26 -27 -28 51 0
-12 13 14 -15 -25 26 27 -28 51 0
-12 13 -14 15 -25 26 -27 28 51 0
12 13 14 15 25 26 27 28 51 0
-12 -13 14 -15 -25 -26 27 -28 51 0
12 -13 14 -15 25 -26 27 -28 51 0
-12 13 -14 -15 -25 26 -27 -28 51 0
-29 -52 0
16 -52 0
29 -53 0
-16 -53 0
21 22 23 34 35 36 -49 50 -51 52 53 54 55 56 57 58 59 60 61 62 63 0
-30 -54 0
17 -54 0
30 -55 0
-17 -55 0
21 22 23 34 35 36 49 -50 -51 52 53 54 55 56 57 58 59 60 61 62 63 0
21 22 -23 34 35 -36 -49 50 -51 52 53 54 55 56 57 58 59 60 61 62 63 0
-31 -56 0
18 -56 0
31 -57 0
-18 -57 0
21 22 -23 34 35 -36 49 -50 -51 52 53 54 55 56 57 58 59 60 61 62 63 0
-32 -58 0
19 -58 0
32 -59 0
-19 -59 0
21 -22 23 34 -35 36 -49 50 -51 52 53 54 55 56 57 58 59 60 61 62 63 0
21 -22 23 34 -35 36 49 -50 -51 52 53 54 55 56 57 58 59 60 61 62 63 0
21 -22 -23 34 -35 -36 -49 50 -51 52 53 54 55 56 57 58 59 60 61 62 63 0
21 -22 -23 34 -35 -36 49 -50 -51 52 53 54 55 56 57 58 59 60 61 62 63 0
-37 -60 0
24 -60 0
37 -61 0
-24 -61 0
-21 22 23 -34 35 36 -49 50 -51 52 53 54 55 56 57 58 59 60 61 62 63 0
-33 -62 0
20 -62 0
33 -63 0
-20 -63 0
-21 22 23 -34 35 36 49 -50 -51 52 53 54 55 56 57 58 59 60 61 62 63 0
-21 22 -23 -34 35 -36 49 -50 -51 52 53 54 55 56 57 58 59 60 61 62 63 0
-21 22 -23 -34 35 -36 -49 50 -51 52 53 54 55 56 57 58 59 60 61 62 63 0
-21 -22 23 -34 -35 36 49 -50 -51 52 53 54 55 56 57 58 59 60 61 62 63 0
-21 -22 23 -34 -35 36 -49 50 -51 52 53 54 55 56 57 58 59 60 61 62 63 0
-21 -22 -23 -34 -35 -36 -49 50 -51 52 53 54 55 56 57 58 59 60 61 62 63 0
-21 -22 -23 -34 -35 -36 49 -50 -51 52 53 54 55 56 57 58 59 60 61 62 63 0
11 23 -36 -49 50 66 -73 75 76 77 78 80 81 82 83 85 86 87 88 89 90 91 92 93 0
-23 24 85 -87 0
-7 -12 -19 -20 -84 0
38 39 40 64 0
-38 39 40 -64 0
-38 -39 40 64 0
38 -39 40 -64 0
38 39 -40 -64 0
-38 39 -40 64 0
38 -39 -40 64 0
-38 -39 -40 -64 0
-41 -42 43 44 64 -65 0
41 42 43 44 64 -65 0
-41 -42 -43 -44 64 -65 0
-41 42 43 44 -64 -65 0
41 42 -43 -44 -64 65 0
41 42 -43 -44 64 -65 0
-41 42 -43 -44 64 65 0
-41 42 -43 44 -64 65 0
-41 -42 -43 44 64 65 0
41 42 -43 44 64 65 0
-41 -42 43 -44 -64 -65 0
-41 42 -43 -44 -64 -65 0
-41 42 43 -44 64 -65 0
-41 -42 -43 -44 -64 65 0
41 -42 -43 44 64 -65 0
41 -42 43 44 -64 -65 0
-41 42 -43 44 64 -65 0
41 -42 -43 44 -64 65 0
41 -42 43 -44 64 -65 0
-41 -42 43 44 -64 65 0
41 -42 -43 -44 64 65 0
41 -42 -43 -44 -64 -65 0
-41 -42 43 -44 64 65 0
-41 42 43 44 64 65 0
-41 42 43 -44 -64 65 0
41 42 -43 44 -64 -65 0
41 -42 43 44 64 65 0
41 -42 43 -44 -64 65 0
41 42 43 44 -64 65 0
-41 -42 -43 44 -64 -65 0
41 42 43 -44 64 65 0
41 42 43 -44 -64 -65 0
-12 -24 -45 -46 -47 -48 65 66 0
-12 -24 45 46 -47 -48 65 66 0
-12 -24 -45 46 -47 48 65 66 0
-12 -24 -45 46 -47 -48 -65 66 0
45 46 -47 -48 -65 -66 0
-12 -24 45 -46 -47 48 65 66 0
-45 46 -47 -48 65 -66 0
-45 46 -47 48 -65 -66 0
-45 -46 -47 48 65 -66 0
45 46 -47 48 65 -66 0
-12 -24 45 46 47 48 65 66 0
-12 -24 -45 -46 -47 48 -65 66 0
-12 -24 45 -46 47 48 -65 66 0
-45 -46 -47 -48 -65 -66 0
-12 -24 45 -46 47 -48 65 66 0
-12 -24 45 -46 -47 -48 -65 66 0
-12 -24 -45 46 47 -48 65 66 0
45 -46 -47 48 -65 -66 0
-12 -24 -45 -46 47 48 65 66 0
-45 -46 47 48 -65 -66 0
45 -46 -47 -48 65 -66 0
-12 -24 45 46 -47 48 -65 66 0
-45 -46 47 -48 65 -66 0
-45 46 47 48 65 -66 0
-45 46 47 -48 -65 -66 0
-12 -24 45 46 47 -48 -65 66 0
45 -46 47 48 65 -66 0
45 -46 47 -48 -65 -66 0
45 46 47 48 -65 -66 0
-12 -24 -45 -46 47 -48 -65 66 0
12 -66 0
45 46 47 -48 65 -66 0
-13 26 -66 67 0
1 13 -67 0
1 -69 0
2 -14 -69 0
1 13 -26 68 0
-1 12 -68 0
12 -86 0
-2 13 14 70 0
1 -2 14 70 0
13 -26 -66 68 0
13 -69 0
1 12 -67 0
13 -66 -67 0
2 13 71 0
12 -69 0
-13 -66 -68 0
-1 -12 -13 -14 -71 0
-2 12 70 0
12 71 0
13 14 71 0
-26 -67 0
-1 12 26 67 0
-13 -14 -16 -17 -18 -19 -20 -21 -22 -23 -24 -49 -72 0
26 -68 0
1 -12 -13 26 67 0
-68 -73 0
-14 -25 -27 28 -66 67 68 72 73 0
-1 13 66 -68 0
2 -12 13 -14 70 0
3 12 -25 27 28 67 68 70 73 0
-14 -25 -27 -28 -66 67 68 -72 73 0
2 14 71 0
-2 -12 -14 -70 0
1 12 -26 68 0
1 -12 -13 -68 0
1 14 71 0
-1 2 -12 -13 14 69 0
-1 -2 -12 -13 -14 69 0
1 2 71 0
2 14 -70 0
-1 -2 -12 -13 -71 0
-1 -12 -13 -26 66 68 0
1 2 -12 -14 70 0
3 -25 -27 28 66 67 68 -69 71 -72 73 0
-3 -25 -27 -28 66 67 68 -70 -71 72 73 0
3 -25 27 28 66 67 68 69 70 -71 72 73 0
-3 -25 -27 -28 66 68 -69 -71 72 73 0
-67 -73 0
3 -25 27 -28 66 67 68 69 70 71 72 73 0
-3 -25 -27 28 66 67 68 -69 -71 -72 73 0
3 -25 -27 28 66 67 68 -70 -71 72 73 0
3 -25 27 28 66 67 68 69 70 71 -72 73 0
3 -25 27 -28 66 67 68 69 70 -71 -72 73 0
3 -25 -27 -28 66 67 68 -70 -71 -72 73 0
-3 -25 -27 -28 66 67 68 -70 71 -72 73 0
-3 -25 27 -28 66 67 68 69 70 -71 72 73 0
3 -25 -27 -28 66 67 68 -70 71 72 73 0
3 -25 -27 28 66 67 68 -70 71 -72 73 0
-3 14 -25 27 28 67 68 71 72 73 0
-1 -12 -13 66 -67 0
-2 14 -69 0
-3 -25 -27 -28 66 68 -69 71 -72 73 0
-2 -12 -14 -71 0
-1 -12 -13 -70 0
3 -25 -27 28 66 68 -69 -71 72 73 0
15 -72 0
12 -72 0
-12 -15 72 0
3 16 -71 74 0
4 16 -71 72 -75 0
-3 -25 27 28 66 67 68 69 70 71 72 73 0
-3 -25 27 -28 66 67 68 69 70 71 -72 73 0
-3 -25 -27 28 66 67 68 -70 -71 -72 73 0
66 -71 72 74 -75 0
-16 71 -72 -74 0
-3 -16 71 -74 0
-3 66 -72 -74 -76 0
3 4 16 72 -75 0
3 66 72 74 -75 0
4 12 -75 0
14 -25 27 -28 -66 67 68 -72 73 0
-3 -4 -72 -74 0
16 -71 72 74 0
-4 -16 71 -72 -76 0
-4 71 -72 -74 0
3 14 -25 27 28 67 68 69 70 -71 72 73 0
-3 -25 27 28 66 67 68 69 70 -71 -72 73 0
-3 -4 -16 71 -76 0
3 66 -71 74 -75 0
-3 66 71 -74 -76 0
-3 -4 71 -74 0
12 74 0
3 4 72 74 0
16 -66 -75 0
14 -25 27 28 -66 67 68 72 73 0
16 74 -75 0
3 4 16 -71 -75 0
3 16 72 74 0
-3 -16 -72 -74 0
4 16 74 0
4 -71 72 74 0
3 4 -71 74 0
-16 -66 -76 0
4 66 74 -75 0
-3 -4 -16 -72 -76 0
-4 -12 -16 -74 0
-3 -25 -27 28 66 68 -69 71 72 73 0
-4 66 -74 -76 0
-12 -16 -74 -76 0
66 71 -72 -74 -76 0
3 -25 -27 -28 66 67 68 -69 -71 -72 73 0
-29 -75 0
29 -76 0
-3 -25 -27 28 66 67 68 -70 71 72 73 0
11 -12 -23 -36 -49 50 -73 75 76 77 78 80 81 82 83 -85 86 87 88 89 90 91 92 93 0
25 -73 0
-5 12 -78 0
5 -17 66 74 -77 0
5 18 -74 79 0
6 17 18 -74 -80 0
-5 -12 -17 -18 -79 0
-17 -18 74 -79 0
17 66 -74 79 -80 0
-5 -12 -17 66 -74 -77 0
-5 -18 74 -79 0
2 12 -70 0
5 6 17 18 -80 0
5 17 66 79 -80 0
-5 -6 -12 -17 -18 -81 0
6 12 -80 0
-5 -12 -17 66 -79 -81 0
17 18 -74 79 0
-6 -17 74 -79 0
17 -66 -77 0
-17 66 74 -79 -81 0
-30 -77 0
5 -12 -17 -74 -78 0
30 -78 0
12 79 0
5 17 66 74 -78 0
-11 -23 -36 -49 50 -73 75 76 77 78 80 81 82 83 85 86 87 88 89 90 91 92 93 0
-5 -6 -18 74 -81 0
11 24 -85 -86 0
-5 -6 74 -79 0
5 6 17 79 0
5 17 -74 -77 0
18 -66 -80 0
18 79 -80 0
5 6 18 -74 -80 0
5 17 18 79 0
-6 -17 -18 74 -81 0
6 18 79 0
-5 66 74 -79 -81 0
-18 -66 -81 0
6 66 79 -80 0
-5 -6 -12 -17 -79 0
-6 -12 -18 -79 0
-5 17 66 -74 -78 0
-6 66 -79 -81 0
-12 -18 -79 -81 0
6 17 -74 79 0
-5 -17 74 -78 0
5 6 -74 79 0
-31 -80 0
31 -81 0
-5 17 74 -77 0
-23 -36 -49 50 -66 -73 75 76 77 78 80 81 82 83 87 88 89 90 91 92 93 0
-7 12 -83 0
7 -19 66 79 -82 0
7 8 20 -79 -88 0
-8 -19 -20 79 -89 0
7 12 -82 0
19 66 -79 84 -88 0
5 12 -77 0
-7 -8 -20 79 -89 0
-7 -19 79 -83 0
19 20 -79 84 0
7 19 20 84 0
12 84 0
7 19 66 84 -88 0
-7 -8 -12 -19 -20 -89 0
-7 -12 -19 66 -84 -89 0
8 19 20 -79 -88 0
-8 -19 79 -84 0
19 -66 -82 0
-19 66 79 -84 -89 0
-32 -82 0
-7 -12 -19 66 -79 -82 0
32 -83 0
8 12 -88 0
7 19 66 79 -83 0
-11 12 -36 -49 50 -73 75 76 77 78 80 81 82 83 87 88 89 90 91 92 93 0
-7 -20 79 -84 0
-12 23 -24 66 -85 -87 0
-7 -8 79 -84 0
-11 23 36 -49 50 -73 75 76 77 78 80 81 82 83 85 86 87 88 89 90 91 92 93 0
8 19 -79 84 0
7 8 -79 84 0
7 19 -79 -82 0
20 -66 -88 0
-7 19 79 -82 0
24 -66 0
8 66 84 -88 0
-12 -20 -84 -89 0
9 -12 -21 -84 -91 0
-20 -66 -89 0
9 21 66 84 -91 0
-9 -10 -22 84 -93 0
-21 -22 84 -85 0
-9 -10 84 -85 0
9 66 -84 85 -92 0
-21 -66 -91 0
9 -21 66 84 -90 0
-9 12 -91 0
9 22 -84 85 0
22 -66 -92 0
9 10 21 85 0
9 21 66 85 -92 0
-9 -12 -21 -22 -85 0
-9 66 84 -85 -93 0
10 66 85 -92 0
-12 -22 -85 -93 0
-11 -12 -23 24 -87 0
-12 -24 -45 46 47 48 -65 66 0
11 -12 23 -24 66 -87 0
-1 13 26 66 67 0
3 -25 -27 -28 66 68 -69 71 72 73 0
23 24 -85 -86 0
11 -23 36 -49 50 66 -73 75 76 77 78 80 81 82 83 85 86 87 88 89 90 91 92 93 0
11 -12 -24 66 -85 -87 0
-17 -66 -78 0
-22 -66 -93 0
-11 -24 85 -86 0
-19 -66 -83 0
11 23 36 -49 50 -73 75 76 77 78 80 81 82 83 -85 86 87 88 89 90 91 92 93 0
-7 66 79 -84 -89 0
-7 19 66 -79 -83 0
-37 -86 0
-23 -24 85 -86 0
37 -87 0
-66 -86 0
9 21 22 85 0
8 20 84 0
7 20 -79 84 0
-7 -8 -12 -19 -84 0
7 8 19 84 0
7 8 19 20 -88 0
-19 -20 79 -84 0
-8 -12 -20 -84 0
20 84 -88 0
-33 -88 0
33 -89 0
-8 66 -84 -89 0
5 66 -74 79 -80 0
9 10 21 22 -92 0
10 12 -92 0
-21 66 84 -85 -93 0
-9 -10 -12 -21 -85 0
-10 -21 -22 84 -93 0
9 10 22 -84 -92 0
-11 -23 -24 -86 0
9 10 -84 85 0
-10 -21 84 -85 0
9 12 -90 0
-9 -12 -21 66 -85 -93 0
-9 -12 -21 66 -84 -90 0
-34 -90 0
-9 -21 84 -91 0
34 -91 0
10 21 22 -84 -92 0
-9 21 84 -90 0
-9 21 66 -84 -91 0
-9 -10 -12 -21 -22 -93 0
10 21 -84 85 0
10 22 85 0
12 85 0
9 21 -84 -90 0
21 66 -84 85 -92 0
21 -66 -90 0
-9 -22 84 -85 0
21 22 -84 85 0
-10 -12 -22 -85 0
22 85 -92 0
-35 -92 0
35 -93 0
-10 66 -85 -93 0
-11 24 85 -87 0
23 36 -49 50 -66 -73 75 76 77 78 80 81 82 83 87 88 89 90 91 92 93 0
-11 -12 -23 36 -49 50 66 -73 75 76 77 78 80 81 82 83 -85 86 87 88 89 90 91 92 93 0
11 23 24 -86 0
7 -12 -19 -79 -83 0
7 66 -79 84 -88 0
-11 23 -36 -49 50 66 -73 75 76 77 78 80 81 82 83 -85 86 87 88 89 90 91 92 93 0
11 12 36 -49 50 -73 75 76 77 78 80 81 82 83 87 88 89 90 91 92 93 0
12 13 14 15 16 17 18 19 20 21 22 23 24 49 0
